WARNING: for repeatability, setting FPU to use double precision
============================[ Problem Statistics ]=============================
|                                                                             |
|  Number of variables:            50                                         |
|  Number of clauses:             218                                         |
|  Parse time:                   0.00 s                                       |
|                                                                             |
============================[ Search Statistics ]==============================
| Conflicts |          ORIGINAL         |          LEARNT          | Progress |
|           |    Vars  Clauses Literals |    Limit  Clauses Lit/Cl |          |
===============================================================================
===============================================================================
restarts              : 1
conflicts             : 40             (56180 /sec)
decisions             : 47             (0.00 % random) (66011 /sec)
propagations          : 556            (780899 /sec)
conflict literals     : 137            (18.45 % deleted)
Memory used           : 20.00 MB
CPU time              : 0.000712 s

UNSATISFIABLE
